************************************************************************
file with basedata            : mm42_.bas
initial value random generator: 1075541439
************************************************************************
projects                      :  1
jobs (incl. supersource/sink ):  12
horizon                       :  76
RESOURCES
  - renewable                 :  2   R
  - nonrenewable              :  2   N
  - doubly constrained        :  0   D
************************************************************************
PROJECT INFORMATION:
pronr.  #jobs rel.date duedate tardcost  MPM-Time
    1     10      0       20        5       20
************************************************************************
PRECEDENCE RELATIONS:
jobnr.    #modes  #successors   successors
   0        1          3           1   2   3
   1        3          3           4   5  10
   2        3          3           4   6   9
   3        3          1          10
   4        3          1           8
   5        3          1           9
   6        3          2           7  10
   7        3          1           8
   8        3          1          11
   9        3          1          11
  10        3          1          11
  11        1          0        
************************************************************************
REQUESTS/DURATIONS:
jobnr. mode duration  R 1  R 2  R 3  R 4  E(W 1)  E(W 2)  E(W 3)
------------------------------------------------------------------------
  0      1     0       0    0    0    0     0       0       0
  1      1     4       3    4    0    2    28       0       8
  2      1     2       3    5    0    8    16       0      16
  3      1     2       9    7    3    0    32       6       0
  4      1     4       6   10    0    9    64       0      36
  5      1     1       6   10    0    5    16       0       5
  6      1     8       9    8    0    6    136       0      48
  7      1     4      10    7    0    7    68       0      28
  8      1     6       7    7    0    5    84       0      30
  9      1     6       4    8    0    9    72       0      54
 10      1     2       8    8    3    0    32       6       0
 11      1     0       0    0    0    0     0       0       0
************************************************************************
RESOURCEAVAILABILITIES:
  R 1  R 2  R 3
   35   21   34
************************************************************************
RESOURCE LIMITS:
jobnr.  l(R 1)  u(R 1)  l(R 2)  u(R 2)  l(R 3)  u(R 3)
------------------------------------------------------------------------
  0        0       0       0       0       0       0
  1        4       7       0       0       1       2
  2        5       8       0       0       4       8
  3        9      16       2       3       0       0
  4        8      16       0       0       5       9
  5        8      16       0       0       3       5
  6        9      17       0       0       3       6
  7        9      17       0       0       4       7
  8        8      14       0       0       3       5
  9        6      12       0       0       5       9
 10        8      16       2       3       0       0
 11        0       0       0       0       0       0
************************************************************************
SCENARIOS:
------------------------------------------------------------------------
RESOURCE k = 1
s = 1: (0, 20, 19, 32, 51, 23, 119, 79, 58, 96, 36, 0)
s = 2: (0, 25, 19, 33, 61, 16, 89, 65, 101, 98, 36, 0)
s = 3: (0, 30, 17, 21, 52, 9, 123, 57, 75, 51, 26, 0)
s = 4: (0, 20, 11, 21, 87, 10, 112, 86, 51, 54, 27, 0)
s = 5: (0, 25, 11, 23, 76, 14, 128, 47, 114, 57, 29, 0)
s = 6: (0, 51, 10, 26, 42, 11, 114, 101, 84, 76, 21, 0)
s = 7: (0, 26, 12, 33, 65, 19, 202, 81, 62, 60, 30, 0)
s = 8: (0, 28, 25, 22, 61, 23, 115, 89, 89, 65, 51, 0)
s = 9: (0, 16, 15, 28, 69, 13, 132, 60, 73, 52, 24, 0)
s = 10: (0, 27, 11, 28, 53, 19, 149, 44, 73, 97, 34, 0)
s = 11: (0, 21, 11, 42, 58, 19, 161, 42, 78, 45, 26, 0)
s = 12: (0, 48, 14, 39, 52, 20, 166, 53, 46, 74, 24, 0)
s = 13: (0, 20, 23, 31, 48, 11, 270, 51, 44, 62, 41, 0)
s = 14: (0, 27, 22, 36, 54, 12, 155, 74, 128, 99, 25, 0)
s = 15: (0, 23, 11, 31, 58, 15, 173, 54, 72, 83, 25, 0)
s = 16: (0, 36, 18, 18, 74, 12, 75, 57, 76, 142, 27, 0)
s = 17: (0, 33, 20, 32, 63, 17, 114, 44, 81, 44, 28, 0)
s = 18: (0, 24, 13, 36, 70, 15, 114, 70, 78, 59, 40, 0)
s = 19: (0, 28, 14, 61, 63, 12, 117, 82, 51, 90, 36, 0)
s = 20: (0, 20, 18, 27, 66, 15, 138, 40, 62, 65, 18, 0)
s = 21: (0, 25, 20, 37, 65, 13, 133, 67, 79, 68, 35, 0)
s = 22: (0, 25, 15, 20, 69, 14, 133, 42, 81, 45, 28, 0)
s = 23: (0, 25, 14, 30, 49, 19, 141, 58, 71, 72, 42, 0)
s = 24: (0, 23, 17, 30, 72, 23, 142, 64, 81, 67, 29, 0)
s = 25: (0, 20, 10, 33, 88, 17, 128, 72, 81, 97, 23, 0)
s = 26: (0, 17, 15, 27, 88, 12, 196, 85, 107, 96, 42, 0)
s = 27: (0, 26, 12, 23, 45, 13, 140, 72, 93, 85, 43, 0)
s = 28: (0, 19, 15, 44, 46, 22, 91, 55, 68, 58, 36, 0)
s = 29: (0, 21, 15, 21, 99, 16, 129, 105, 65, 50, 41, 0)
s = 30: (0, 16, 13, 49, 99, 17, 181, 74, 66, 69, 38, 0)
s = 31: (0, 26, 17, 53, 72, 16, 160, 65, 47, 66, 32, 0)
s = 32: (0, 22, 20, 34, 63, 22, 135, 52, 87, 61, 35, 0)
s = 33: (0, 42, 19, 39, 42, 18, 130, 71, 81, 47, 60, 0)
s = 34: (0, 25, 12, 22, 62, 17, 180, 76, 110, 80, 29, 0)
s = 35: (0, 27, 14, 25, 118, 18, 104, 62, 63, 110, 29, 0)
s = 36: (0, 38, 11, 35, 43, 19, 133, 68, 87, 93, 20, 0)
s = 37: (0, 21, 21, 20, 82, 25, 87, 90, 71, 120, 48, 0)
s = 38: (0, 19, 20, 37, 59, 16, 216, 88, 68, 121, 25, 0)
s = 39: (0, 26, 14, 26, 45, 19, 164, 35, 88, 66, 28, 0)
s = 40: (0, 28, 21, 41, 49, 27, 80, 56, 93, 65, 31, 0)
s = 41: (0, 33, 18, 54, 42, 17, 190, 56, 112, 116, 41, 0)
s = 42: (0, 25, 20, 41, 75, 16, 81, 86, 64, 130, 38, 0)
s = 43: (0, 33, 15, 28, 72, 15, 135, 46, 123, 62, 33, 0)
s = 44: (0, 21, 14, 20, 91, 19, 111, 108, 64, 66, 18, 0)
s = 45: (0, 28, 17, 33, 59, 10, 154, 66, 97, 129, 30, 0)
s = 46: (0, 25, 23, 34, 55, 23, 105, 63, 154, 85, 24, 0)
s = 47: (0, 22, 21, 20, 44, 23, 104, 78, 59, 52, 43, 0)
s = 48: (0, 23, 24, 35, 64, 13, 156, 61, 106, 78, 30, 0)
s = 49: (0, 21, 18, 29, 82, 15, 77, 76, 80, 82, 27, 0)
s = 50: (0, 22, 10, 59, 86, 15, 174, 95, 82, 90, 33, 0)
s = 51: (0, 39, 16, 44, 63, 26, 199, 62, 67, 59, 41, 0)
s = 52: (0, 29, 13, 32, 85, 17, 160, 53, 72, 93, 40, 0)
s = 53: (0, 22, 23, 43, 79, 24, 186, 71, 86, 77, 21, 0)
s = 54: (0, 41, 13, 42, 68, 19, 118, 84, 129, 87, 21, 0)
s = 55: (0, 31, 21, 19, 72, 15, 196, 77, 96, 61, 40, 0)
s = 56: (0, 19, 13, 31, 99, 16, 222, 110, 99, 49, 36, 0)
s = 57: (0, 23, 14, 29, 41, 17, 147, 91, 114, 74, 47, 0)
s = 58: (0, 47, 20, 53, 67, 23, 119, 76, 71, 54, 45, 0)
s = 59: (0, 42, 14, 29, 78, 15, 197, 64, 113, 78, 36, 0)
s = 60: (0, 38, 22, 41, 55, 16, 95, 65, 131, 42, 34, 0)
s = 61: (0, 29, 14, 35, 98, 13, 183, 47, 68, 81, 28, 0)
s = 62: (0, 30, 12, 24, 90, 14, 136, 68, 95, 42, 23, 0)
s = 63: (0, 43, 13, 28, 53, 13, 126, 68, 133, 85, 38, 0)
s = 64: (0, 27, 13, 23, 64, 15, 99, 82, 59, 47, 26, 0)
s = 65: (0, 29, 22, 49, 67, 20, 157, 93, 93, 75, 24, 0)
s = 66: (0, 20, 16, 24, 92, 11, 119, 96, 96, 111, 20, 0)
s = 67: (0, 23, 16, 27, 70, 22, 97, 53, 65, 69, 40, 0)
s = 68: (0, 28, 17, 20, 68, 18, 115, 40, 106, 68, 30, 0)
s = 69: (0, 47, 18, 32, 68, 20, 148, 44, 109, 60, 18, 0)
s = 70: (0, 22, 18, 23, 42, 19, 175, 88, 102, 94, 30, 0)
s = 71: (0, 46, 22, 27, 99, 22, 164, 66, 77, 71, 24, 0)
s = 72: (0, 19, 15, 40, 38, 14, 163, 83, 101, 125, 34, 0)
s = 73: (0, 25, 14, 41, 56, 24, 203, 68, 89, 64, 27, 0)
s = 74: (0, 26, 19, 21, 43, 12, 113, 108, 92, 77, 44, 0)
s = 75: (0, 25, 22, 47, 41, 14, 154, 43, 94, 99, 43, 0)
s = 76: (0, 25, 14, 47, 36, 28, 186, 67, 122, 74, 25, 0)
s = 77: (0, 29, 14, 34, 46, 10, 87, 128, 98, 57, 37, 0)
s = 78: (0, 25, 17, 42, 56, 12, 130, 110, 90, 93, 37, 0)
s = 79: (0, 33, 14, 24, 41, 11, 145, 50, 71, 88, 21, 0)
s = 80: (0, 30, 18, 30, 50, 12, 108, 82, 60, 45, 39, 0)
s = 81: (0, 35, 10, 35, 73, 20, 157, 43, 94, 75, 48, 0)
s = 82: (0, 42, 30, 32, 42, 11, 95, 79, 101, 82, 52, 0)
s = 83: (0, 25, 12, 41, 101, 12, 141, 43, 72, 65, 34, 0)
s = 84: (0, 35, 19, 38, 66, 20, 146, 94, 83, 49, 36, 0)
s = 85: (0, 30, 15, 20, 61, 15, 160, 54, 124, 77, 30, 0)
s = 86: (0, 25, 10, 32, 67, 16, 268, 73, 105, 44, 25, 0)
s = 87: (0, 36, 19, 45, 93, 12, 200, 59, 126, 106, 27, 0)
s = 88: (0, 24, 15, 26, 71, 21, 131, 46, 102, 96, 25, 0)
s = 89: (0, 35, 17, 27, 65, 18, 163, 61, 138, 60, 32, 0)
s = 90: (0, 42, 25, 46, 104, 22, 132, 46, 111, 41, 33, 0)
s = 91: (0, 22, 11, 43, 53, 14, 156, 58, 106, 117, 53, 0)
s = 92: (0, 22, 11, 25, 80, 18, 207, 122, 121, 87, 32, 0)
s = 93: (0, 25, 18, 26, 49, 14, 161, 105, 95, 99, 23, 0)
s = 94: (0, 38, 22, 33, 66, 15, 100, 74, 93, 81, 40, 0)
s = 95: (0, 17, 13, 18, 61, 11, 134, 99, 84, 52, 34, 0)
s = 96: (0, 23, 13, 18, 64, 17, 127, 52, 92, 73, 29, 0)
s = 97: (0, 45, 9, 37, 43, 22, 150, 84, 86, 55, 30, 0)
s = 98: (0, 24, 21, 26, 46, 15, 197, 43, 111, 55, 30, 0)
s = 99: (0, 29, 13, 59, 119, 11, 135, 109, 71, 52, 41, 0)
s = 100: (0, 44, 18, 24, 94, 16, 91, 52, 106, 63, 26, 0)
s = 101: (0, 38, 25, 24, 39, 11, 126, 63, 63, 93, 21, 0)
s = 102: (0, 21, 13, 38, 86, 14, 155, 80, 64, 71, 19, 0)
s = 103: (0, 37, 12, 53, 66, 28, 113, 53, 72, 73, 36, 0)
s = 104: (0, 38, 23, 30, 67, 12, 178, 77, 108, 53, 39, 0)
s = 105: (0, 27, 21, 33, 73, 14, 110, 75, 129, 64, 37, 0)
s = 106: (0, 40, 13, 38, 40, 11, 149, 68, 68, 79, 22, 0)
s = 107: (0, 41, 20, 31, 51, 12, 86, 68, 97, 67, 24, 0)
s = 108: (0, 28, 17, 35, 62, 16, 185, 76, 57, 109, 26, 0)
s = 109: (0, 38, 21, 30, 64, 16, 194, 121, 104, 45, 25, 0)
s = 110: (0, 44, 15, 33, 59, 22, 84, 105, 88, 77, 29, 0)
s = 111: (0, 17, 22, 39, 35, 10, 145, 118, 68, 64, 24, 0)
s = 112: (0, 27, 12, 26, 37, 15, 186, 72, 105, 45, 34, 0)
s = 113: (0, 36, 12, 52, 86, 13, 96, 76, 80, 66, 32, 0)
s = 114: (0, 28, 12, 25, 59, 11, 106, 64, 72, 88, 41, 0)
s = 115: (0, 24, 22, 38, 77, 17, 109, 41, 158, 61, 20, 0)
s = 116: (0, 25, 11, 39, 73, 14, 108, 48, 73, 73, 48, 0)
s = 117: (0, 35, 11, 24, 78, 12, 118, 73, 87, 82, 35, 0)
s = 118: (0, 20, 19, 35, 56, 18, 144, 109, 58, 51, 36, 0)
s = 119: (0, 39, 14, 44, 86, 12, 88, 54, 62, 86, 40, 0)
s = 120: (0, 20, 16, 46, 72, 12, 124, 59, 66, 76, 37, 0)
s = 121: (0, 18, 11, 28, 72, 25, 102, 93, 68, 77, 28, 0)
s = 122: (0, 40, 11, 25, 61, 10, 128, 77, 100, 54, 35, 0)
s = 123: (0, 23, 18, 26, 56, 21, 101, 92, 96, 64, 38, 0)
s = 124: (0, 26, 12, 36, 102, 10, 154, 45, 78, 54, 41, 0)
s = 125: (0, 24, 26, 21, 55, 15, 148, 65, 88, 78, 36, 0)
s = 126: (0, 23, 19, 26, 65, 18, 137, 73, 82, 48, 23, 0)
s = 127: (0, 17, 19, 22, 53, 17, 117, 78, 132, 89, 37, 0)
s = 128: (0, 16, 25, 42, 40, 26, 172, 86, 63, 61, 40, 0)
s = 129: (0, 25, 22, 49, 81, 15, 162, 82, 65, 78, 32, 0)
s = 130: (0, 32, 21, 27, 108, 24, 147, 61, 63, 40, 28, 0)
s = 131: (0, 22, 25, 28, 42, 17, 109, 42, 59, 110, 30, 0)
s = 132: (0, 18, 27, 24, 50, 17, 157, 54, 104, 45, 34, 0)
s = 133: (0, 17, 13, 42, 91, 11, 99, 50, 59, 82, 36, 0)
s = 134: (0, 24, 12, 30, 96, 12, 170, 62, 85, 91, 51, 0)
s = 135: (0, 31, 18, 37, 58, 13, 145, 70, 122, 106, 54, 0)
s = 136: (0, 22, 18, 47, 73, 12, 106, 63, 77, 87, 24, 0)
s = 137: (0, 20, 10, 24, 82, 19, 170, 67, 101, 68, 31, 0)
s = 138: (0, 42, 14, 21, 66, 16, 86, 73, 81, 74, 35, 0)
s = 139: (0, 25, 11, 27, 94, 15, 230, 55, 81, 56, 21, 0)
s = 140: (0, 34, 10, 26, 58, 12, 81, 108, 71, 53, 24, 0)
s = 141: (0, 27, 13, 34, 59, 20, 109, 46, 114, 113, 28, 0)
s = 142: (0, 25, 11, 37, 40, 22, 100, 73, 60, 108, 28, 0)
s = 143: (0, 29, 17, 36, 82, 12, 189, 93, 119, 87, 18, 0)
s = 144: (0, 28, 20, 31, 57, 14, 164, 67, 48, 51, 26, 0)
s = 145: (0, 24, 17, 40, 76, 19, 158, 63, 94, 87, 21, 0)
s = 146: (0, 23, 14, 43, 81, 22, 130, 123, 74, 105, 44, 0)
s = 147: (0, 34, 25, 33, 99, 13, 103, 53, 63, 88, 25, 0)
s = 148: (0, 32, 17, 24, 74, 20, 122, 71, 87, 107, 48, 0)
s = 149: (0, 23, 19, 42, 42, 21, 167, 81, 85, 63, 36, 0)
s = 150: (0, 36, 12, 47, 74, 18, 78, 118, 82, 96, 42, 0)
s = 151: (0, 19, 15, 30, 67, 14, 130, 89, 71, 58, 22, 0)
s = 152: (0, 16, 24, 35, 57, 9, 77, 47, 59, 76, 26, 0)
s = 153: (0, 23, 18, 31, 80, 23, 119, 88, 87, 62, 35, 0)
s = 154: (0, 24, 19, 24, 53, 17, 121, 68, 61, 70, 30, 0)
s = 155: (0, 19, 15, 24, 81, 12, 89, 58, 104, 72, 25, 0)
s = 156: (0, 35, 23, 22, 38, 25, 82, 48, 71, 59, 39, 0)
s = 157: (0, 42, 13, 33, 62, 16, 100, 86, 94, 48, 31, 0)
s = 158: (0, 31, 12, 37, 47, 16, 89, 88, 124, 50, 29, 0)
s = 159: (0, 26, 9, 24, 51, 18, 155, 54, 104, 56, 28, 0)
s = 160: (0, 31, 18, 25, 66, 13, 166, 106, 111, 96, 33, 0)
s = 161: (0, 39, 17, 23, 50, 18, 96, 53, 59, 128, 36, 0)
s = 162: (0, 20, 14, 31, 47, 15, 81, 54, 117, 69, 24, 0)
s = 163: (0, 23, 21, 51, 110, 14, 137, 76, 99, 80, 25, 0)
s = 164: (0, 20, 13, 30, 96, 13, 85, 52, 90, 124, 39, 0)
s = 165: (0, 19, 27, 33, 97, 14, 121, 57, 71, 110, 29, 0)
s = 166: (0, 25, 20, 25, 51, 16, 114, 75, 104, 108, 35, 0)
s = 167: (0, 21, 22, 45, 76, 10, 125, 71, 73, 81, 54, 0)
s = 168: (0, 27, 9, 38, 54, 21, 136, 64, 71, 61, 28, 0)
s = 169: (0, 20, 16, 17, 40, 22, 250, 70, 49, 43, 29, 0)
s = 170: (0, 23, 16, 38, 70, 20, 109, 92, 70, 90, 38, 0)
s = 171: (0, 36, 18, 32, 73, 16, 88, 44, 107, 55, 39, 0)
s = 172: (0, 27, 14, 50, 52, 11, 115, 67, 73, 61, 24, 0)
s = 173: (0, 30, 11, 33, 53, 11, 90, 51, 71, 57, 28, 0)
s = 174: (0, 29, 17, 40, 83, 17, 142, 70, 72, 109, 25, 0)
s = 175: (0, 41, 23, 33, 58, 20, 103, 52, 109, 42, 43, 0)
s = 176: (0, 27, 15, 26, 39, 17, 73, 51, 58, 107, 25, 0)
s = 177: (0, 20, 10, 22, 99, 17, 105, 48, 70, 71, 37, 0)
s = 178: (0, 35, 14, 44, 57, 16, 121, 76, 58, 38, 23, 0)
s = 179: (0, 30, 15, 27, 78, 15, 164, 55, 114, 83, 46, 0)
s = 180: (0, 18, 20, 39, 67, 23, 120, 92, 65, 54, 30, 0)
s = 181: (0, 44, 20, 26, 50, 15, 202, 59, 79, 55, 23, 0)
s = 182: (0, 28, 23, 32, 107, 15, 98, 60, 107, 57, 39, 0)
s = 183: (0, 17, 15, 30, 97, 18, 140, 44, 95, 79, 27, 0)
s = 184: (0, 36, 10, 24, 50, 12, 110, 64, 55, 82, 37, 0)
s = 185: (0, 26, 24, 24, 55, 14, 115, 61, 123, 102, 46, 0)
s = 186: (0, 42, 10, 20, 71, 18, 145, 52, 79, 78, 34, 0)
s = 187: (0, 31, 24, 30, 77, 12, 225, 74, 75, 62, 37, 0)
s = 188: (0, 27, 10, 31, 94, 16, 125, 41, 61, 49, 34, 0)
s = 189: (0, 34, 27, 37, 37, 20, 204, 47, 77, 61, 44, 0)
s = 190: (0, 19, 20, 29, 50, 15, 101, 60, 72, 51, 37, 0)
s = 191: (0, 27, 15, 35, 44, 23, 170, 78, 48, 62, 46, 0)
s = 192: (0, 31, 18, 40, 69, 20, 108, 103, 46, 116, 44, 0)
s = 193: (0, 32, 22, 33, 96, 11, 103, 60, 89, 70, 30, 0)
s = 194: (0, 25, 11, 53, 71, 14, 182, 48, 62, 53, 27, 0)
s = 195: (0, 39, 16, 39, 46, 17, 232, 66, 59, 63, 33, 0)
s = 196: (0, 49, 17, 35, 76, 11, 184, 64, 102, 96, 22, 0)
s = 197: (0, 23, 26, 41, 46, 18, 231, 95, 59, 75, 19, 0)
s = 198: (0, 26, 20, 31, 98, 14, 87, 78, 109, 50, 31, 0)
s = 199: (0, 34, 15, 43, 43, 19, 110, 58, 63, 60, 25, 0)
s = 200: (0, 20, 13, 33, 56, 18, 242, 79, 49, 70, 46, 0)
------------------------------------------------------------------------
RESOURCE k = 2
s = 1: (0, 0, 0, 6, 0, 0, 0, 0, 0, 0, 7, 0)
s = 2: (0, 0, 0, 7, 0, 0, 0, 0, 0, 0, 7, 0)
s = 3: (0, 0, 0, 4, 0, 0, 0, 0, 0, 0, 5, 0)
s = 4: (0, 0, 0, 4, 0, 0, 0, 0, 0, 0, 5, 0)
s = 5: (0, 0, 0, 5, 0, 0, 0, 0, 0, 0, 6, 0)
s = 6: (0, 0, 0, 5, 0, 0, 0, 0, 0, 0, 4, 0)
s = 7: (0, 0, 0, 7, 0, 0, 0, 0, 0, 0, 6, 0)
s = 8: (0, 0, 0, 5, 0, 0, 0, 0, 0, 0, 10, 0)
s = 9: (0, 0, 0, 6, 0, 0, 0, 0, 0, 0, 5, 0)
s = 10: (0, 0, 0, 6, 0, 0, 0, 0, 0, 0, 7, 0)
s = 11: (0, 0, 0, 8, 0, 0, 0, 0, 0, 0, 5, 0)
s = 12: (0, 0, 0, 8, 0, 0, 0, 0, 0, 0, 5, 0)
s = 13: (0, 0, 0, 6, 0, 0, 0, 0, 0, 0, 8, 0)
s = 14: (0, 0, 0, 7, 0, 0, 0, 0, 0, 0, 5, 0)
s = 15: (0, 0, 0, 6, 0, 0, 0, 0, 0, 0, 5, 0)
s = 16: (0, 0, 0, 4, 0, 0, 0, 0, 0, 0, 5, 0)
s = 17: (0, 0, 0, 6, 0, 0, 0, 0, 0, 0, 6, 0)
s = 18: (0, 0, 0, 7, 0, 0, 0, 0, 0, 0, 8, 0)
s = 19: (0, 0, 0, 12, 0, 0, 0, 0, 0, 0, 7, 0)
s = 20: (0, 0, 0, 5, 0, 0, 0, 0, 0, 0, 4, 0)
s = 21: (0, 0, 0, 7, 0, 0, 0, 0, 0, 0, 7, 0)
s = 22: (0, 0, 0, 4, 0, 0, 0, 0, 0, 0, 6, 0)
s = 23: (0, 0, 0, 6, 0, 0, 0, 0, 0, 0, 8, 0)
s = 24: (0, 0, 0, 6, 0, 0, 0, 0, 0, 0, 6, 0)
s = 25: (0, 0, 0, 7, 0, 0, 0, 0, 0, 0, 5, 0)
s = 26: (0, 0, 0, 5, 0, 0, 0, 0, 0, 0, 8, 0)
s = 27: (0, 0, 0, 5, 0, 0, 0, 0, 0, 0, 9, 0)
s = 28: (0, 0, 0, 9, 0, 0, 0, 0, 0, 0, 7, 0)
s = 29: (0, 0, 0, 4, 0, 0, 0, 0, 0, 0, 8, 0)
s = 30: (0, 0, 0, 10, 0, 0, 0, 0, 0, 0, 7, 0)
s = 31: (0, 0, 0, 10, 0, 0, 0, 0, 0, 0, 6, 0)
s = 32: (0, 0, 0, 7, 0, 0, 0, 0, 0, 0, 7, 0)
s = 33: (0, 0, 0, 8, 0, 0, 0, 0, 0, 0, 12, 0)
s = 34: (0, 0, 0, 4, 0, 0, 0, 0, 0, 0, 6, 0)
s = 35: (0, 0, 0, 5, 0, 0, 0, 0, 0, 0, 6, 0)
s = 36: (0, 0, 0, 7, 0, 0, 0, 0, 0, 0, 4, 0)
s = 37: (0, 0, 0, 4, 0, 0, 0, 0, 0, 0, 9, 0)
s = 38: (0, 0, 0, 7, 0, 0, 0, 0, 0, 0, 5, 0)
s = 39: (0, 0, 0, 5, 0, 0, 0, 0, 0, 0, 6, 0)
s = 40: (0, 0, 0, 8, 0, 0, 0, 0, 0, 0, 6, 0)
s = 41: (0, 0, 0, 11, 0, 0, 0, 0, 0, 0, 8, 0)
s = 42: (0, 0, 0, 8, 0, 0, 0, 0, 0, 0, 8, 0)
s = 43: (0, 0, 0, 6, 0, 0, 0, 0, 0, 0, 7, 0)
s = 44: (0, 0, 0, 4, 0, 0, 0, 0, 0, 0, 4, 0)
s = 45: (0, 0, 0, 7, 0, 0, 0, 0, 0, 0, 6, 0)
s = 46: (0, 0, 0, 7, 0, 0, 0, 0, 0, 0, 5, 0)
s = 47: (0, 0, 0, 4, 0, 0, 0, 0, 0, 0, 9, 0)
s = 48: (0, 0, 0, 7, 0, 0, 0, 0, 0, 0, 6, 0)
s = 49: (0, 0, 0, 6, 0, 0, 0, 0, 0, 0, 5, 0)
s = 50: (0, 0, 0, 11, 0, 0, 0, 0, 0, 0, 7, 0)
s = 51: (0, 0, 0, 9, 0, 0, 0, 0, 0, 0, 8, 0)
s = 52: (0, 0, 0, 6, 0, 0, 0, 0, 0, 0, 8, 0)
s = 53: (0, 0, 0, 8, 0, 0, 0, 0, 0, 0, 4, 0)
s = 54: (0, 0, 0, 8, 0, 0, 0, 0, 0, 0, 4, 0)
s = 55: (0, 0, 0, 4, 0, 0, 0, 0, 0, 0, 8, 0)
s = 56: (0, 0, 0, 6, 0, 0, 0, 0, 0, 0, 7, 0)
s = 57: (0, 0, 0, 6, 0, 0, 0, 0, 0, 0, 9, 0)
s = 58: (0, 0, 0, 10, 0, 0, 0, 0, 0, 0, 9, 0)
s = 59: (0, 0, 0, 6, 0, 0, 0, 0, 0, 0, 7, 0)
s = 60: (0, 0, 0, 8, 0, 0, 0, 0, 0, 0, 7, 0)
s = 61: (0, 0, 0, 7, 0, 0, 0, 0, 0, 0, 6, 0)
s = 62: (0, 0, 0, 5, 0, 0, 0, 0, 0, 0, 5, 0)
s = 63: (0, 0, 0, 6, 0, 0, 0, 0, 0, 0, 7, 0)
s = 64: (0, 0, 0, 5, 0, 0, 0, 0, 0, 0, 5, 0)
s = 65: (0, 0, 0, 10, 0, 0, 0, 0, 0, 0, 5, 0)
s = 66: (0, 0, 0, 5, 0, 0, 0, 0, 0, 0, 4, 0)
s = 67: (0, 0, 0, 5, 0, 0, 0, 0, 0, 0, 8, 0)
s = 68: (0, 0, 0, 4, 0, 0, 0, 0, 0, 0, 6, 0)
s = 69: (0, 0, 0, 6, 0, 0, 0, 0, 0, 0, 4, 0)
s = 70: (0, 0, 0, 5, 0, 0, 0, 0, 0, 0, 6, 0)
s = 71: (0, 0, 0, 5, 0, 0, 0, 0, 0, 0, 5, 0)
s = 72: (0, 0, 0, 8, 0, 0, 0, 0, 0, 0, 7, 0)
s = 73: (0, 0, 0, 8, 0, 0, 0, 0, 0, 0, 5, 0)
s = 74: (0, 0, 0, 4, 0, 0, 0, 0, 0, 0, 9, 0)
s = 75: (0, 0, 0, 9, 0, 0, 0, 0, 0, 0, 9, 0)
s = 76: (0, 0, 0, 9, 0, 0, 0, 0, 0, 0, 5, 0)
s = 77: (0, 0, 0, 7, 0, 0, 0, 0, 0, 0, 7, 0)
s = 78: (0, 0, 0, 8, 0, 0, 0, 0, 0, 0, 7, 0)
s = 79: (0, 0, 0, 5, 0, 0, 0, 0, 0, 0, 4, 0)
s = 80: (0, 0, 0, 6, 0, 0, 0, 0, 0, 0, 8, 0)
s = 81: (0, 0, 0, 7, 0, 0, 0, 0, 0, 0, 9, 0)
s = 82: (0, 0, 0, 6, 0, 0, 0, 0, 0, 0, 10, 0)
s = 83: (0, 0, 0, 8, 0, 0, 0, 0, 0, 0, 7, 0)
s = 84: (0, 0, 0, 7, 0, 0, 0, 0, 0, 0, 7, 0)
s = 85: (0, 0, 0, 4, 0, 0, 0, 0, 0, 0, 6, 0)
s = 86: (0, 0, 0, 6, 0, 0, 0, 0, 0, 0, 5, 0)
s = 87: (0, 0, 0, 9, 0, 0, 0, 0, 0, 0, 5, 0)
s = 88: (0, 0, 0, 5, 0, 0, 0, 0, 0, 0, 5, 0)
s = 89: (0, 0, 0, 5, 0, 0, 0, 0, 0, 0, 6, 0)
s = 90: (0, 0, 0, 9, 0, 0, 0, 0, 0, 0, 7, 0)
s = 91: (0, 0, 0, 9, 0, 0, 0, 0, 0, 0, 10, 0)
s = 92: (0, 0, 0, 5, 0, 0, 0, 0, 0, 0, 6, 0)
s = 93: (0, 0, 0, 5, 0, 0, 0, 0, 0, 0, 5, 0)
s = 94: (0, 0, 0, 7, 0, 0, 0, 0, 0, 0, 8, 0)
s = 95: (0, 0, 0, 4, 0, 0, 0, 0, 0, 0, 7, 0)
s = 96: (0, 0, 0, 4, 0, 0, 0, 0, 0, 0, 6, 0)
s = 97: (0, 0, 0, 7, 0, 0, 0, 0, 0, 0, 6, 0)
s = 98: (0, 0, 0, 5, 0, 0, 0, 0, 0, 0, 6, 0)
s = 99: (0, 0, 0, 12, 0, 0, 0, 0, 0, 0, 8, 0)
s = 100: (0, 0, 0, 5, 0, 0, 0, 0, 0, 0, 5, 0)
s = 101: (0, 0, 0, 5, 0, 0, 0, 0, 0, 0, 4, 0)
s = 102: (0, 0, 0, 8, 0, 0, 0, 0, 0, 0, 4, 0)
s = 103: (0, 0, 0, 10, 0, 0, 0, 0, 0, 0, 7, 0)
s = 104: (0, 0, 0, 6, 0, 0, 0, 0, 0, 0, 8, 0)
s = 105: (0, 0, 0, 7, 0, 0, 0, 0, 0, 0, 7, 0)
s = 106: (0, 0, 0, 8, 0, 0, 0, 0, 0, 0, 5, 0)
s = 107: (0, 0, 0, 6, 0, 0, 0, 0, 0, 0, 5, 0)
s = 108: (0, 0, 0, 7, 0, 0, 0, 0, 0, 0, 5, 0)
s = 109: (0, 0, 0, 6, 0, 0, 0, 0, 0, 0, 5, 0)
s = 110: (0, 0, 0, 7, 0, 0, 0, 0, 0, 0, 6, 0)
s = 111: (0, 0, 0, 8, 0, 0, 0, 0, 0, 0, 5, 0)
s = 112: (0, 0, 0, 5, 0, 0, 0, 0, 0, 0, 7, 0)
s = 113: (0, 0, 0, 10, 0, 0, 0, 0, 0, 0, 6, 0)
s = 114: (0, 0, 0, 5, 0, 0, 0, 0, 0, 0, 8, 0)
s = 115: (0, 0, 0, 8, 0, 0, 0, 0, 0, 0, 4, 0)
s = 116: (0, 0, 0, 8, 0, 0, 0, 0, 0, 0, 9, 0)
s = 117: (0, 0, 0, 5, 0, 0, 0, 0, 0, 0, 7, 0)
s = 118: (0, 0, 0, 7, 0, 0, 0, 0, 0, 0, 7, 0)
s = 119: (0, 0, 0, 9, 0, 0, 0, 0, 0, 0, 8, 0)
s = 120: (0, 0, 0, 9, 0, 0, 0, 0, 0, 0, 7, 0)
s = 121: (0, 0, 0, 6, 0, 0, 0, 0, 0, 0, 6, 0)
s = 122: (0, 0, 0, 5, 0, 0, 0, 0, 0, 0, 7, 0)
s = 123: (0, 0, 0, 5, 0, 0, 0, 0, 0, 0, 8, 0)
s = 124: (0, 0, 0, 7, 0, 0, 0, 0, 0, 0, 8, 0)
s = 125: (0, 0, 0, 4, 0, 0, 0, 0, 0, 0, 7, 0)
s = 126: (0, 0, 0, 5, 0, 0, 0, 0, 0, 0, 5, 0)
s = 127: (0, 0, 0, 5, 0, 0, 0, 0, 0, 0, 7, 0)
s = 128: (0, 0, 0, 8, 0, 0, 0, 0, 0, 0, 8, 0)
s = 129: (0, 0, 0, 10, 0, 0, 0, 0, 0, 0, 6, 0)
s = 130: (0, 0, 0, 5, 0, 0, 0, 0, 0, 0, 6, 0)
s = 131: (0, 0, 0, 6, 0, 0, 0, 0, 0, 0, 6, 0)
s = 132: (0, 0, 0, 5, 0, 0, 0, 0, 0, 0, 7, 0)
s = 133: (0, 0, 0, 8, 0, 0, 0, 0, 0, 0, 7, 0)
s = 134: (0, 0, 0, 6, 0, 0, 0, 0, 0, 0, 10, 0)
s = 135: (0, 0, 0, 7, 0, 0, 0, 0, 0, 0, 11, 0)
s = 136: (0, 0, 0, 9, 0, 0, 0, 0, 0, 0, 5, 0)
s = 137: (0, 0, 0, 5, 0, 0, 0, 0, 0, 0, 6, 0)
s = 138: (0, 0, 0, 4, 0, 0, 0, 0, 0, 0, 7, 0)
s = 139: (0, 0, 0, 6, 0, 0, 0, 0, 0, 0, 4, 0)
s = 140: (0, 0, 0, 5, 0, 0, 0, 0, 0, 0, 5, 0)
s = 141: (0, 0, 0, 7, 0, 0, 0, 0, 0, 0, 6, 0)
s = 142: (0, 0, 0, 7, 0, 0, 0, 0, 0, 0, 6, 0)
s = 143: (0, 0, 0, 7, 0, 0, 0, 0, 0, 0, 4, 0)
s = 144: (0, 0, 0, 6, 0, 0, 0, 0, 0, 0, 5, 0)
s = 145: (0, 0, 0, 8, 0, 0, 0, 0, 0, 0, 4, 0)
s = 146: (0, 0, 0, 9, 0, 0, 0, 0, 0, 0, 9, 0)
s = 147: (0, 0, 0, 7, 0, 0, 0, 0, 0, 0, 5, 0)
s = 148: (0, 0, 0, 5, 0, 0, 0, 0, 0, 0, 9, 0)
s = 149: (0, 0, 0, 8, 0, 0, 0, 0, 0, 0, 7, 0)
s = 150: (0, 0, 0, 9, 0, 0, 0, 0, 0, 0, 8, 0)
s = 151: (0, 0, 0, 6, 0, 0, 0, 0, 0, 0, 4, 0)
s = 152: (0, 0, 0, 7, 0, 0, 0, 0, 0, 0, 5, 0)
s = 153: (0, 0, 0, 6, 0, 0, 0, 0, 0, 0, 7, 0)
s = 154: (0, 0, 0, 5, 0, 0, 0, 0, 0, 0, 6, 0)
s = 155: (0, 0, 0, 5, 0, 0, 0, 0, 0, 0, 5, 0)
s = 156: (0, 0, 0, 4, 0, 0, 0, 0, 0, 0, 8, 0)
s = 157: (0, 0, 0, 7, 0, 0, 0, 0, 0, 0, 6, 0)
s = 158: (0, 0, 0, 7, 0, 0, 0, 0, 0, 0, 6, 0)
s = 159: (0, 0, 0, 5, 0, 0, 0, 0, 0, 0, 6, 0)
s = 160: (0, 0, 0, 5, 0, 0, 0, 0, 0, 0, 7, 0)
s = 161: (0, 0, 0, 5, 0, 0, 0, 0, 0, 0, 7, 0)
s = 162: (0, 0, 0, 6, 0, 0, 0, 0, 0, 0, 5, 0)
s = 163: (0, 0, 0, 10, 0, 0, 0, 0, 0, 0, 5, 0)
s = 164: (0, 0, 0, 6, 0, 0, 0, 0, 0, 0, 8, 0)
s = 165: (0, 0, 0, 7, 0, 0, 0, 0, 0, 0, 6, 0)
s = 166: (0, 0, 0, 5, 0, 0, 0, 0, 0, 0, 7, 0)
s = 167: (0, 0, 0, 9, 0, 0, 0, 0, 0, 0, 10, 0)
s = 168: (0, 0, 0, 7, 0, 0, 0, 0, 0, 0, 6, 0)
s = 169: (0, 0, 0, 4, 0, 0, 0, 0, 0, 0, 6, 0)
s = 170: (0, 0, 0, 8, 0, 0, 0, 0, 0, 0, 8, 0)
s = 171: (0, 0, 0, 6, 0, 0, 0, 0, 0, 0, 8, 0)
s = 172: (0, 0, 0, 10, 0, 0, 0, 0, 0, 0, 5, 0)
s = 173: (0, 0, 0, 7, 0, 0, 0, 0, 0, 0, 6, 0)
s = 174: (0, 0, 0, 8, 0, 0, 0, 0, 0, 0, 5, 0)
s = 175: (0, 0, 0, 7, 0, 0, 0, 0, 0, 0, 9, 0)
s = 176: (0, 0, 0, 5, 0, 0, 0, 0, 0, 0, 5, 0)
s = 177: (0, 0, 0, 5, 0, 0, 0, 0, 0, 0, 7, 0)
s = 178: (0, 0, 0, 9, 0, 0, 0, 0, 0, 0, 5, 0)
s = 179: (0, 0, 0, 5, 0, 0, 0, 0, 0, 0, 9, 0)
s = 180: (0, 0, 0, 8, 0, 0, 0, 0, 0, 0, 6, 0)
s = 181: (0, 0, 0, 5, 0, 0, 0, 0, 0, 0, 5, 0)
s = 182: (0, 0, 0, 6, 0, 0, 0, 0, 0, 0, 8, 0)
s = 183: (0, 0, 0, 6, 0, 0, 0, 0, 0, 0, 6, 0)
s = 184: (0, 0, 0, 5, 0, 0, 0, 0, 0, 0, 7, 0)
s = 185: (0, 0, 0, 5, 0, 0, 0, 0, 0, 0, 9, 0)
s = 186: (0, 0, 0, 4, 0, 0, 0, 0, 0, 0, 7, 0)
s = 187: (0, 0, 0, 6, 0, 0, 0, 0, 0, 0, 7, 0)
s = 188: (0, 0, 0, 6, 0, 0, 0, 0, 0, 0, 7, 0)
s = 189: (0, 0, 0, 7, 0, 0, 0, 0, 0, 0, 9, 0)
s = 190: (0, 0, 0, 6, 0, 0, 0, 0, 0, 0, 7, 0)
s = 191: (0, 0, 0, 7, 0, 0, 0, 0, 0, 0, 9, 0)
s = 192: (0, 0, 0, 8, 0, 0, 0, 0, 0, 0, 9, 0)
s = 193: (0, 0, 0, 7, 0, 0, 0, 0, 0, 0, 6, 0)
s = 194: (0, 0, 0, 10, 0, 0, 0, 0, 0, 0, 5, 0)
s = 195: (0, 0, 0, 8, 0, 0, 0, 0, 0, 0, 7, 0)
s = 196: (0, 0, 0, 7, 0, 0, 0, 0, 0, 0, 5, 0)
s = 197: (0, 0, 0, 8, 0, 0, 0, 0, 0, 0, 4, 0)
s = 198: (0, 0, 0, 6, 0, 0, 0, 0, 0, 0, 6, 0)
s = 199: (0, 0, 0, 9, 0, 0, 0, 0, 0, 0, 5, 0)
s = 200: (0, 0, 0, 7, 0, 0, 0, 0, 0, 0, 9, 0)
------------------------------------------------------------------------
RESOURCE k = 3
s = 1: (0, 6, 19, 0, 29, 7, 42, 33, 21, 72, 0, 0)
s = 2: (0, 8, 19, 0, 35, 5, 32, 27, 36, 73, 0, 0)
s = 3: (0, 9, 17, 0, 29, 3, 44, 24, 27, 38, 0, 0)
s = 4: (0, 6, 11, 0, 49, 3, 40, 36, 19, 40, 0, 0)
s = 5: (0, 7, 11, 0, 43, 5, 45, 20, 41, 43, 0, 0)
s = 6: (0, 15, 10, 0, 24, 4, 40, 42, 30, 57, 0, 0)
s = 7: (0, 8, 12, 0, 37, 6, 72, 34, 22, 45, 0, 0)
s = 8: (0, 8, 25, 0, 34, 7, 41, 37, 32, 49, 0, 0)
s = 9: (0, 5, 15, 0, 39, 5, 47, 25, 26, 39, 0, 0)
s = 10: (0, 8, 11, 0, 30, 6, 53, 18, 27, 73, 0, 0)
s = 11: (0, 6, 11, 0, 33, 6, 57, 18, 28, 34, 0, 0)
s = 12: (0, 14, 14, 0, 30, 7, 59, 22, 17, 56, 0, 0)
s = 13: (0, 6, 23, 0, 27, 4, 96, 21, 16, 47, 0, 0)
s = 14: (0, 8, 22, 0, 30, 4, 55, 31, 46, 75, 0, 0)
s = 15: (0, 7, 11, 0, 33, 5, 61, 23, 26, 63, 0, 0)
s = 16: (0, 11, 18, 0, 42, 4, 27, 24, 28, 107, 0, 0)
s = 17: (0, 10, 20, 0, 36, 6, 41, 18, 29, 33, 0, 0)
s = 18: (0, 7, 13, 0, 40, 5, 41, 29, 28, 44, 0, 0)
s = 19: (0, 8, 14, 0, 36, 4, 42, 34, 19, 68, 0, 0)
s = 20: (0, 6, 18, 0, 37, 5, 49, 17, 23, 49, 0, 0)
s = 21: (0, 7, 20, 0, 37, 4, 47, 28, 28, 51, 0, 0)
s = 22: (0, 7, 15, 0, 39, 5, 47, 18, 29, 34, 0, 0)
s = 23: (0, 7, 14, 0, 28, 6, 50, 24, 26, 54, 0, 0)
s = 24: (0, 7, 17, 0, 41, 7, 51, 27, 29, 51, 0, 0)
s = 25: (0, 6, 10, 0, 50, 6, 46, 30, 29, 73, 0, 0)
s = 26: (0, 5, 15, 0, 50, 4, 70, 35, 39, 72, 0, 0)
s = 27: (0, 8, 12, 0, 25, 4, 50, 30, 34, 64, 0, 0)
s = 28: (0, 6, 15, 0, 26, 7, 32, 23, 25, 44, 0, 0)
s = 29: (0, 6, 15, 0, 56, 5, 46, 44, 24, 37, 0, 0)
s = 30: (0, 5, 13, 0, 56, 6, 64, 31, 24, 52, 0, 0)
s = 31: (0, 8, 17, 0, 41, 5, 57, 27, 17, 50, 0, 0)
s = 32: (0, 7, 20, 0, 35, 7, 48, 22, 31, 46, 0, 0)
s = 33: (0, 12, 19, 0, 24, 6, 46, 30, 29, 36, 0, 0)
s = 34: (0, 8, 12, 0, 35, 6, 64, 31, 40, 60, 0, 0)
s = 35: (0, 8, 14, 0, 66, 6, 37, 26, 23, 82, 0, 0)
s = 36: (0, 11, 11, 0, 25, 6, 47, 28, 31, 70, 0, 0)
s = 37: (0, 6, 21, 0, 47, 8, 31, 37, 26, 90, 0, 0)
s = 38: (0, 6, 20, 0, 33, 5, 77, 37, 25, 91, 0, 0)
s = 39: (0, 8, 14, 0, 25, 6, 58, 15, 32, 50, 0, 0)
s = 40: (0, 8, 21, 0, 28, 9, 28, 23, 33, 49, 0, 0)
s = 41: (0, 10, 18, 0, 24, 6, 67, 24, 40, 87, 0, 0)
s = 42: (0, 8, 20, 0, 42, 5, 29, 36, 23, 98, 0, 0)
s = 43: (0, 10, 15, 0, 41, 5, 48, 19, 44, 47, 0, 0)
s = 44: (0, 6, 14, 0, 52, 6, 40, 45, 23, 50, 0, 0)
s = 45: (0, 8, 17, 0, 33, 4, 55, 27, 35, 97, 0, 0)
s = 46: (0, 8, 23, 0, 31, 7, 37, 26, 55, 64, 0, 0)
s = 47: (0, 7, 21, 0, 25, 8, 37, 33, 21, 39, 0, 0)
s = 48: (0, 7, 24, 0, 36, 4, 56, 26, 38, 58, 0, 0)
s = 49: (0, 6, 18, 0, 46, 5, 27, 32, 29, 61, 0, 0)
s = 50: (0, 7, 10, 0, 48, 5, 62, 39, 30, 68, 0, 0)
s = 51: (0, 11, 16, 0, 36, 9, 70, 26, 24, 44, 0, 0)
s = 52: (0, 9, 13, 0, 48, 6, 57, 22, 26, 70, 0, 0)
s = 53: (0, 7, 23, 0, 45, 8, 66, 29, 31, 58, 0, 0)
s = 54: (0, 12, 13, 0, 38, 6, 42, 35, 46, 66, 0, 0)
s = 55: (0, 9, 21, 0, 41, 5, 70, 32, 35, 46, 0, 0)
s = 56: (0, 6, 13, 0, 56, 5, 79, 46, 36, 37, 0, 0)
s = 57: (0, 7, 14, 0, 23, 6, 52, 38, 41, 56, 0, 0)
s = 58: (0, 14, 20, 0, 38, 7, 42, 32, 26, 41, 0, 0)
s = 59: (0, 12, 14, 0, 44, 5, 70, 27, 41, 59, 0, 0)
s = 60: (0, 11, 22, 0, 31, 5, 34, 27, 47, 32, 0, 0)
s = 61: (0, 9, 14, 0, 55, 4, 65, 20, 24, 61, 0, 0)
s = 62: (0, 9, 12, 0, 51, 5, 48, 28, 34, 31, 0, 0)
s = 63: (0, 13, 13, 0, 30, 4, 45, 28, 48, 64, 0, 0)
s = 64: (0, 8, 13, 0, 36, 5, 35, 34, 21, 36, 0, 0)
s = 65: (0, 9, 22, 0, 38, 6, 56, 38, 33, 57, 0, 0)
s = 66: (0, 6, 16, 0, 52, 4, 42, 40, 35, 83, 0, 0)
s = 67: (0, 7, 16, 0, 40, 7, 35, 22, 24, 52, 0, 0)
s = 68: (0, 8, 17, 0, 39, 6, 41, 17, 38, 51, 0, 0)
s = 69: (0, 14, 18, 0, 38, 7, 52, 19, 39, 45, 0, 0)
s = 70: (0, 7, 18, 0, 24, 6, 62, 36, 37, 70, 0, 0)
s = 71: (0, 14, 22, 0, 56, 7, 58, 28, 28, 53, 0, 0)
s = 72: (0, 6, 15, 0, 21, 5, 58, 35, 36, 94, 0, 0)
s = 73: (0, 7, 14, 0, 32, 8, 72, 28, 32, 48, 0, 0)
s = 74: (0, 8, 19, 0, 25, 4, 40, 45, 33, 58, 0, 0)
s = 75: (0, 7, 22, 0, 24, 5, 55, 18, 34, 75, 0, 0)
s = 76: (0, 7, 14, 0, 21, 9, 66, 28, 44, 55, 0, 0)
s = 77: (0, 9, 14, 0, 26, 3, 31, 53, 35, 43, 0, 0)
s = 78: (0, 7, 17, 0, 32, 4, 46, 46, 33, 70, 0, 0)
s = 79: (0, 10, 14, 0, 23, 4, 51, 21, 26, 66, 0, 0)
s = 80: (0, 9, 18, 0, 28, 4, 38, 34, 22, 34, 0, 0)
s = 81: (0, 10, 10, 0, 41, 7, 56, 18, 34, 57, 0, 0)
s = 82: (0, 12, 30, 0, 24, 4, 34, 33, 36, 62, 0, 0)
s = 83: (0, 7, 12, 0, 57, 4, 50, 18, 26, 49, 0, 0)
s = 84: (0, 10, 19, 0, 37, 7, 52, 39, 30, 37, 0, 0)
s = 85: (0, 9, 15, 0, 35, 5, 57, 22, 44, 58, 0, 0)
s = 86: (0, 8, 10, 0, 38, 5, 95, 31, 38, 33, 0, 0)
s = 87: (0, 11, 19, 0, 53, 4, 71, 24, 45, 80, 0, 0)
s = 88: (0, 7, 15, 0, 40, 7, 47, 19, 37, 72, 0, 0)
s = 89: (0, 10, 17, 0, 37, 6, 58, 25, 49, 45, 0, 0)
s = 90: (0, 12, 25, 0, 59, 7, 47, 19, 40, 31, 0, 0)
s = 91: (0, 7, 11, 0, 30, 5, 55, 24, 38, 88, 0, 0)
s = 92: (0, 7, 11, 0, 45, 6, 74, 51, 44, 66, 0, 0)
s = 93: (0, 7, 18, 0, 28, 5, 57, 44, 34, 74, 0, 0)
s = 94: (0, 11, 22, 0, 38, 5, 36, 31, 33, 61, 0, 0)
s = 95: (0, 5, 13, 0, 35, 4, 48, 41, 30, 39, 0, 0)
s = 96: (0, 7, 13, 0, 36, 6, 45, 22, 33, 55, 0, 0)
s = 97: (0, 13, 9, 0, 24, 7, 53, 35, 31, 41, 0, 0)
s = 98: (0, 7, 21, 0, 26, 5, 70, 18, 40, 41, 0, 0)
s = 99: (0, 9, 13, 0, 67, 4, 48, 45, 26, 39, 0, 0)
s = 100: (0, 13, 18, 0, 53, 5, 32, 22, 38, 47, 0, 0)
s = 101: (0, 11, 25, 0, 22, 4, 45, 26, 23, 70, 0, 0)
s = 102: (0, 6, 13, 0, 49, 5, 55, 33, 23, 54, 0, 0)
s = 103: (0, 11, 12, 0, 37, 9, 40, 22, 26, 55, 0, 0)
s = 104: (0, 11, 23, 0, 38, 4, 63, 32, 39, 40, 0, 0)
s = 105: (0, 8, 21, 0, 41, 5, 39, 31, 47, 48, 0, 0)
s = 106: (0, 12, 13, 0, 23, 4, 53, 28, 25, 60, 0, 0)
s = 107: (0, 12, 20, 0, 29, 4, 31, 28, 35, 50, 0, 0)
s = 108: (0, 8, 17, 0, 35, 5, 66, 31, 21, 82, 0, 0)
s = 109: (0, 11, 21, 0, 36, 5, 69, 50, 37, 34, 0, 0)
s = 110: (0, 13, 15, 0, 33, 7, 30, 43, 32, 58, 0, 0)
s = 111: (0, 5, 22, 0, 20, 3, 52, 49, 25, 48, 0, 0)
s = 112: (0, 8, 12, 0, 21, 5, 66, 30, 38, 34, 0, 0)
s = 113: (0, 11, 12, 0, 49, 4, 34, 32, 29, 50, 0, 0)
s = 114: (0, 8, 12, 0, 33, 4, 38, 26, 26, 66, 0, 0)
s = 115: (0, 7, 22, 0, 44, 6, 39, 17, 57, 46, 0, 0)
s = 116: (0, 7, 11, 0, 41, 5, 38, 20, 26, 55, 0, 0)
s = 117: (0, 10, 11, 0, 44, 4, 42, 30, 32, 62, 0, 0)
s = 118: (0, 6, 19, 0, 32, 6, 51, 45, 21, 39, 0, 0)
s = 119: (0, 11, 14, 0, 49, 4, 31, 22, 22, 64, 0, 0)
s = 120: (0, 6, 16, 0, 41, 4, 44, 24, 24, 57, 0, 0)
s = 121: (0, 6, 11, 0, 41, 8, 36, 39, 25, 58, 0, 0)
s = 122: (0, 12, 11, 0, 34, 3, 45, 32, 36, 41, 0, 0)
s = 123: (0, 7, 18, 0, 32, 7, 36, 38, 35, 48, 0, 0)
s = 124: (0, 8, 12, 0, 58, 4, 55, 19, 28, 40, 0, 0)
s = 125: (0, 7, 26, 0, 31, 5, 53, 27, 32, 58, 0, 0)
s = 126: (0, 7, 19, 0, 37, 6, 49, 30, 30, 36, 0, 0)
s = 127: (0, 5, 19, 0, 30, 6, 41, 33, 48, 67, 0, 0)
s = 128: (0, 5, 25, 0, 23, 8, 61, 36, 23, 46, 0, 0)
s = 129: (0, 7, 22, 0, 46, 5, 58, 34, 24, 58, 0, 0)
s = 130: (0, 9, 21, 0, 61, 8, 52, 26, 23, 30, 0, 0)
s = 131: (0, 7, 25, 0, 24, 6, 39, 17, 21, 83, 0, 0)
s = 132: (0, 6, 27, 0, 29, 6, 56, 22, 37, 34, 0, 0)
s = 133: (0, 5, 13, 0, 52, 4, 35, 21, 21, 61, 0, 0)
s = 134: (0, 7, 12, 0, 54, 4, 60, 26, 31, 68, 0, 0)
s = 135: (0, 9, 18, 0, 33, 5, 52, 29, 44, 80, 0, 0)
s = 136: (0, 7, 18, 0, 41, 4, 38, 26, 28, 65, 0, 0)
s = 137: (0, 6, 10, 0, 46, 6, 60, 28, 37, 51, 0, 0)
s = 138: (0, 12, 14, 0, 37, 5, 31, 31, 29, 55, 0, 0)
s = 139: (0, 8, 11, 0, 53, 5, 82, 23, 29, 42, 0, 0)
s = 140: (0, 10, 10, 0, 33, 4, 29, 45, 26, 40, 0, 0)
s = 141: (0, 8, 13, 0, 34, 7, 39, 19, 41, 85, 0, 0)
s = 142: (0, 8, 11, 0, 23, 7, 36, 30, 22, 81, 0, 0)
s = 143: (0, 9, 17, 0, 47, 4, 67, 38, 43, 65, 0, 0)
s = 144: (0, 8, 20, 0, 32, 5, 58, 28, 18, 38, 0, 0)
s = 145: (0, 7, 17, 0, 43, 6, 56, 26, 34, 65, 0, 0)
s = 146: (0, 7, 14, 0, 46, 7, 46, 51, 27, 79, 0, 0)
s = 147: (0, 10, 25, 0, 56, 5, 37, 22, 23, 66, 0, 0)
s = 148: (0, 9, 17, 0, 42, 7, 43, 30, 31, 80, 0, 0)
s = 149: (0, 7, 19, 0, 24, 7, 59, 34, 31, 47, 0, 0)
s = 150: (0, 11, 12, 0, 42, 6, 28, 49, 30, 72, 0, 0)
s = 151: (0, 6, 15, 0, 38, 5, 46, 37, 26, 44, 0, 0)
s = 152: (0, 5, 24, 0, 32, 3, 28, 19, 21, 57, 0, 0)
s = 153: (0, 7, 18, 0, 45, 8, 42, 37, 31, 47, 0, 0)
s = 154: (0, 7, 19, 0, 30, 6, 43, 28, 22, 53, 0, 0)
s = 155: (0, 6, 15, 0, 46, 4, 32, 24, 37, 54, 0, 0)
s = 156: (0, 10, 23, 0, 22, 8, 29, 20, 26, 44, 0, 0)
s = 157: (0, 12, 13, 0, 35, 5, 35, 36, 34, 36, 0, 0)
s = 158: (0, 9, 12, 0, 27, 5, 32, 37, 45, 37, 0, 0)
s = 159: (0, 8, 9, 0, 29, 6, 55, 22, 37, 42, 0, 0)
s = 160: (0, 9, 18, 0, 37, 4, 59, 44, 40, 72, 0, 0)
s = 161: (0, 12, 17, 0, 28, 6, 34, 22, 21, 96, 0, 0)
s = 162: (0, 6, 14, 0, 26, 5, 29, 23, 42, 52, 0, 0)
s = 163: (0, 7, 21, 0, 62, 5, 49, 32, 36, 60, 0, 0)
s = 164: (0, 6, 13, 0, 54, 4, 30, 22, 33, 93, 0, 0)
s = 165: (0, 6, 27, 0, 55, 5, 43, 24, 26, 83, 0, 0)
s = 166: (0, 7, 20, 0, 29, 5, 40, 31, 37, 81, 0, 0)
s = 167: (0, 6, 22, 0, 43, 3, 44, 29, 26, 61, 0, 0)
s = 168: (0, 8, 9, 0, 31, 7, 48, 27, 26, 46, 0, 0)
s = 169: (0, 6, 16, 0, 23, 7, 88, 29, 18, 32, 0, 0)
s = 170: (0, 7, 16, 0, 40, 7, 39, 38, 25, 68, 0, 0)
s = 171: (0, 11, 18, 0, 41, 5, 31, 18, 38, 41, 0, 0)
s = 172: (0, 8, 14, 0, 30, 4, 41, 28, 27, 46, 0, 0)
s = 173: (0, 9, 11, 0, 30, 4, 32, 21, 26, 43, 0, 0)
s = 174: (0, 9, 17, 0, 47, 6, 50, 29, 26, 82, 0, 0)
s = 175: (0, 12, 23, 0, 33, 7, 37, 22, 39, 32, 0, 0)
s = 176: (0, 8, 15, 0, 22, 6, 26, 21, 21, 81, 0, 0)
s = 177: (0, 6, 10, 0, 56, 6, 37, 20, 25, 54, 0, 0)
s = 178: (0, 10, 14, 0, 32, 5, 43, 31, 21, 29, 0, 0)
s = 179: (0, 9, 15, 0, 44, 5, 58, 23, 41, 62, 0, 0)
s = 180: (0, 5, 20, 0, 38, 7, 43, 38, 24, 41, 0, 0)
s = 181: (0, 13, 20, 0, 29, 5, 71, 24, 29, 41, 0, 0)
s = 182: (0, 8, 23, 0, 61, 5, 35, 25, 38, 43, 0, 0)
s = 183: (0, 5, 15, 0, 55, 6, 50, 19, 34, 59, 0, 0)
s = 184: (0, 11, 10, 0, 28, 4, 39, 27, 20, 62, 0, 0)
s = 185: (0, 8, 24, 0, 31, 5, 41, 26, 44, 77, 0, 0)
s = 186: (0, 12, 10, 0, 40, 6, 51, 22, 28, 58, 0, 0)
s = 187: (0, 9, 24, 0, 43, 4, 80, 31, 27, 47, 0, 0)
s = 188: (0, 8, 10, 0, 53, 5, 44, 17, 22, 37, 0, 0)
s = 189: (0, 10, 27, 0, 21, 7, 72, 20, 28, 46, 0, 0)
s = 190: (0, 6, 20, 0, 28, 5, 36, 25, 26, 39, 0, 0)
s = 191: (0, 8, 15, 0, 25, 7, 60, 32, 17, 46, 0, 0)
s = 192: (0, 9, 18, 0, 39, 7, 39, 43, 17, 87, 0, 0)
s = 193: (0, 9, 22, 0, 54, 4, 37, 25, 32, 52, 0, 0)
s = 194: (0, 8, 11, 0, 40, 5, 65, 20, 23, 40, 0, 0)
s = 195: (0, 12, 16, 0, 26, 6, 82, 28, 21, 47, 0, 0)
s = 196: (0, 14, 17, 0, 43, 4, 65, 27, 37, 72, 0, 0)
s = 197: (0, 7, 26, 0, 26, 6, 82, 39, 21, 57, 0, 0)
s = 198: (0, 8, 20, 0, 56, 5, 31, 33, 39, 37, 0, 0)
s = 199: (0, 10, 15, 0, 25, 6, 39, 24, 23, 45, 0, 0)
s = 200: (0, 6, 13, 0, 32, 6, 86, 33, 18, 52, 0, 0)
************************************************************************
ES/LS-VALUES:
jobnr.   ES(i)    LS(i)
------------------------------------------------------------------------
  0        0        0
  1        0       48
  2        0       36
  3        0       68
  4        7       56
  5        7       62
  6        3       40
  7       19       56
  8       26       64
  9        8       64
 10       19       72
 11       37       76
************************************************************************
BIG-M-VALUES:
M1 = 66, M2 = 374
************************************************************************
